1 2 30
3155
  3.5  1.90  20.5 1593.2   0.0
 1.27 531.1 422.5
 0.97 405.4 322.5
 1164
  717
 1402
 1224
 1266
  789
  935
  573
 1084
  764
  720
 1390
  728
 1325
  680
  913
  523
  745
  504
  523
  613
  529
 1431
  606
  605
 1134
 1220
  776
  665
 1445
